p tw 182 9101 1 
1 2 
1 3 
1 4 
1 5 
1 6 
1 7 
1 8 
1 9 
1 10 
1 11 
1 12 
1 13 
1 14 
1 15 
1 16 
1 17 
1 18 
1 19 
1 20 
1 21 
1 22 
1 23 
1 24 
1 25 
1 26 
1 27 
1 28 
1 29 
1 30 
1 31 
1 32 
1 33 
1 34 
1 35 
1 36 
1 37 
1 38 
1 39 
1 40 
1 41 
1 42 
1 43 
1 44 
1 45 
1 46 
1 47 
1 48 
1 49 
1 50 
1 51 
1 52 
1 53 
1 54 
1 55 
1 56 
1 57 
1 58 
1 59 
1 60 
1 61 
1 62 
1 63 
1 64 
1 65 
1 66 
1 67 
1 68 
1 69 
1 70 
1 71 
1 72 
1 73 
1 74 
1 75 
1 76 
1 77 
1 78 
1 79 
1 80 
1 81 
1 82 
1 83 
1 84 
1 85 
1 86 
1 87 
1 88 
1 89 
1 90 
1 91 
2 92 
2 93 
2 94 
2 95 
2 96 
2 97 
2 98 
2 99 
2 100 
2 101 
2 102 
2 103 
2 104 
2 105 
2 106 
2 107 
2 108 
2 109 
2 110 
2 111 
2 112 
2 113 
2 114 
2 115 
2 116 
2 117 
2 118 
2 119 
2 120 
2 121 
2 122 
2 123 
2 124 
2 125 
2 126 
2 127 
2 128 
2 129 
2 130 
2 131 
2 132 
2 133 
2 134 
2 135 
2 136 
2 137 
2 138 
2 139 
2 140 
2 141 
2 142 
2 143 
2 144 
2 145 
2 146 
2 147 
2 148 
2 149 
2 150 
2 151 
2 152 
2 153 
2 154 
2 155 
2 156 
2 157 
2 158 
2 159 
2 160 
2 161 
2 162 
2 163 
2 164 
2 165 
2 166 
2 167 
2 168 
2 169 
2 170 
2 171 
2 172 
2 173 
2 174 
2 175 
2 176 
2 177 
2 178 
2 179 
2 180 
2 181 
2 182 
1 93 
1 94 
1 95 
1 96 
1 97 
1 98 
1 99 
1 100 
1 101 
1 102 
2 92 
2 94 
2 103 
2 104 
2 105 
2 106 
2 107 
2 108 
2 109 
2 110 
3 92 
3 93 
3 111 
3 112 
3 113 
3 114 
3 115 
3 116 
3 117 
3 118 
4 92 
4 95 
4 126 
4 132 
4 137 
4 150 
4 162 
4 170 
4 181 
4 182 
5 92 
5 96 
5 120 
5 133 
5 141 
5 144 
5 153 
5 167 
5 175 
5 176 
6 92 
6 97 
6 119 
6 127 
6 134 
6 157 
6 159 
6 164 
6 171 
6 172 
7 92 
7 98 
7 121 
7 135 
7 138 
7 151 
7 158 
7 174 
7 179 
7 180 
8 92 
8 99 
8 122 
8 128 
8 136 
8 145 
8 155 
8 160 
8 165 
8 166 
9 92 
9 100 
9 123 
9 129 
9 139 
9 152 
9 154 
9 163 
9 168 
9 169 
10 92 
10 101 
10 124 
10 130 
10 140 
10 142 
10 146 
10 147 
10 148 
10 149 
11 92 
11 102 
11 125 
11 131 
11 143 
11 156 
11 161 
11 173 
11 177 
11 178 
12 93 
12 103 
12 128 
12 134 
12 142 
12 154 
12 161 
12 175 
12 180 
12 181 
13 93 
13 104 
13 119 
13 130 
13 132 
13 145 
13 167 
13 169 
13 177 
13 179 
14 93 
14 105 
14 122 
14 135 
14 139 
14 146 
14 159 
14 176 
14 178 
14 182 
15 93 
15 106 
15 124 
15 129 
15 137 
15 141 
15 158 
15 166 
15 171 
15 173 
16 93 
16 107 
16 120 
16 131 
16 138 
16 147 
16 155 
16 164 
16 168 
16 170 
17 93 
17 108 
17 121 
17 133 
17 143 
17 148 
17 157 
17 160 
17 162 
17 163 
18 93 
18 109 
18 123 
18 126 
18 140 
18 153 
18 156 
18 165 
18 172 
18 174 
19 93 
19 110 
19 125 
19 127 
19 136 
19 144 
19 149 
19 150 
19 151 
19 152 
20 94 
20 111 
20 131 
20 139 
20 144 
20 148 
20 166 
20 172 
20 179 
20 181 
21 94 
21 112 
21 119 
21 129 
21 133 
21 149 
21 165 
21 170 
21 178 
21 180 
22 94 
22 113 
22 123 
22 130 
22 138 
22 141 
22 150 
22 159 
22 160 
22 161 
23 94 
23 114 
23 125 
23 135 
23 142 
23 145 
23 153 
23 162 
23 168 
23 171 
24 94 
24 115 
24 122 
24 127 
24 137 
24 143 
24 147 
24 169 
24 174 
24 175 
25 94 
25 116 
25 124 
25 126 
25 134 
25 151 
25 155 
25 163 
25 176 
25 177 
26 94 
26 117 
26 121 
26 136 
26 140 
26 154 
26 164 
26 167 
26 173 
26 182 
27 94 
27 118 
27 120 
27 128 
27 132 
27 146 
27 152 
27 156 
27 157 
27 158 
28 95 
28 103 
28 111 
28 119 
28 120 
28 121 
28 122 
28 123 
28 124 
28 125 
29 95 
29 104 
29 112 
29 127 
29 135 
29 141 
29 148 
29 154 
29 155 
29 156 
30 95 
30 105 
30 113 
30 133 
30 142 
30 152 
30 164 
30 166 
30 174 
30 177 
31 95 
31 106 
31 114 
31 139 
31 147 
31 151 
31 157 
31 161 
31 165 
31 167 
32 95 
32 107 
32 115 
32 128 
32 149 
32 153 
32 159 
32 163 
32 173 
32 179 
33 95 
33 108 
33 116 
33 130 
33 136 
33 158 
33 168 
33 172 
33 175 
33 178 
34 95 
34 109 
34 117 
34 129 
34 134 
34 138 
34 143 
34 144 
34 145 
34 146 
35 95 
35 110 
35 118 
35 131 
35 140 
35 160 
35 169 
35 171 
35 176 
35 180 
36 96 
36 103 
36 112 
36 132 
36 140 
36 143 
36 151 
36 159 
36 166 
36 168 
37 97 
37 103 
37 113 
37 129 
37 136 
37 147 
37 156 
37 162 
37 176 
37 179 
38 98 
38 103 
38 114 
38 133 
38 146 
38 150 
38 155 
38 169 
38 172 
38 173 
39 99 
39 103 
39 115 
39 126 
39 138 
39 148 
39 152 
39 167 
39 171 
39 178 
40 100 
40 103 
40 116 
40 131 
40 141 
40 145 
40 149 
40 157 
40 174 
40 182 
41 101 
41 103 
41 117 
41 127 
41 139 
41 153 
41 158 
41 160 
41 170 
41 177 
42 102 
42 103 
42 118 
42 130 
42 135 
42 137 
42 144 
42 163 
42 164 
42 165 
43 96 
43 104 
43 111 
43 136 
43 146 
43 161 
43 163 
43 170 
43 171 
43 174 
44 97 
44 106 
44 111 
44 130 
44 143 
44 152 
44 153 
44 155 
44 180 
44 182 
45 98 
45 105 
45 111 
45 134 
45 137 
45 149 
45 156 
45 160 
45 167 
45 168 
46 99 
46 107 
46 111 
46 129 
46 135 
46 140 
46 150 
46 157 
46 175 
46 177 
47 100 
47 108 
47 111 
47 127 
47 132 
47 138 
47 142 
47 165 
47 173 
47 176 
48 101 
48 109 
48 111 
48 128 
48 141 
48 151 
48 162 
48 164 
48 169 
48 178 
49 102 
49 110 
49 111 
49 126 
49 133 
49 145 
49 147 
49 154 
49 158 
49 159 
50 96 
50 105 
50 114 
50 121 
50 126 
50 127 
50 128 
50 129 
50 130 
50 131 
51 96 
51 107 
51 113 
51 125 
51 134 
51 148 
51 158 
51 165 
51 169 
51 182 
52 96 
52 108 
52 115 
52 124 
52 139 
52 145 
52 150 
52 156 
52 164 
52 180 
53 96 
53 109 
53 116 
53 119 
53 135 
53 147 
53 152 
53 160 
53 173 
53 181 
54 96 
54 110 
54 117 
54 123 
54 137 
54 142 
54 155 
54 157 
54 178 
54 179 
55 96 
55 106 
55 118 
55 122 
55 138 
55 149 
55 154 
55 162 
55 172 
55 177 
56 97 
56 110 
56 115 
56 121 
56 141 
56 146 
56 165 
56 168 
56 177 
56 181 
57 100 
57 105 
57 115 
57 119 
57 140 
57 144 
57 155 
57 158 
57 161 
57 162 
58 101 
58 106 
58 115 
58 123 
58 131 
58 132 
58 133 
58 134 
58 135 
58 136 
59 102 
59 104 
59 115 
59 120 
59 129 
59 142 
59 151 
59 160 
59 172 
59 182 
60 98 
60 109 
60 115 
60 125 
60 130 
60 154 
60 157 
60 166 
60 170 
60 176 
61 97 
61 104 
61 116 
61 125 
61 128 
61 133 
61 137 
61 138 
61 139 
61 140 
62 99 
62 104 
62 114 
62 123 
62 143 
62 149 
62 158 
62 164 
62 176 
62 181 
63 98 
63 104 
63 117 
63 124 
63 131 
63 152 
63 159 
63 162 
63 165 
63 175 
64 101 
64 104 
64 113 
64 122 
64 126 
64 144 
64 157 
64 168 
64 173 
64 180 
65 100 
65 104 
65 118 
65 121 
65 134 
65 147 
65 150 
65 153 
65 166 
65 178 
66 98 
66 107 
66 118 
66 119 
66 126 
66 136 
66 139 
66 141 
66 142 
66 143 
67 98 
67 108 
67 112 
67 123 
67 128 
67 144 
67 147 
67 171 
67 177 
67 182 
68 98 
68 106 
68 113 
68 120 
68 127 
68 140 
68 145 
68 163 
68 178 
68 181 
69 98 
69 110 
69 116 
69 122 
69 129 
69 132 
69 148 
69 153 
69 161 
69 164 
70 99 
70 106 
70 116 
70 121 
70 142 
70 144 
70 156 
70 159 
70 169 
70 170 
71 101 
71 105 
71 116 
71 120 
71 143 
71 150 
71 154 
71 165 
71 171 
71 179 
72 102 
72 107 
72 116 
72 123 
72 127 
72 146 
72 162 
72 166 
72 167 
72 180 
73 101 
73 108 
73 118 
73 125 
73 129 
73 155 
73 159 
73 167 
73 174 
73 181 
74 97 
74 108 
74 117 
74 120 
74 126 
74 135 
74 149 
74 161 
74 166 
74 169 
75 99 
75 108 
75 113 
75 119 
75 131 
75 137 
75 146 
75 151 
75 153 
75 154 
76 99 
76 105 
76 117 
76 125 
76 132 
76 141 
76 147 
76 163 
76 172 
76 180 
77 97 
77 105 
77 118 
77 123 
77 145 
77 148 
77 151 
77 170 
77 173 
77 175 
78 102 
78 105 
78 112 
78 124 
78 136 
78 138 
78 153 
78 157 
78 169 
78 181 
79 100 
79 106 
79 112 
79 125 
79 126 
79 146 
79 160 
79 164 
79 175 
79 179 
80 102 
80 106 
80 117 
80 119 
80 128 
80 148 
80 150 
80 168 
80 174 
80 176 
81 100 
81 107 
81 117 
81 122 
81 130 
81 133 
81 151 
81 156 
81 171 
81 181 
82 99 
82 110 
82 112 
82 120 
82 130 
82 134 
82 139 
82 162 
82 173 
82 174 
83 99 
83 109 
83 118 
83 124 
83 127 
83 133 
83 161 
83 168 
83 179 
83 182 
84 102 
84 108 
84 114 
84 122 
84 134 
84 140 
84 141 
84 152 
84 170 
84 179 
85 101 
85 107 
85 112 
85 121 
85 137 
85 145 
85 152 
85 161 
85 172 
85 176 
86 97 
86 109 
86 112 
86 122 
86 131 
86 142 
86 150 
86 158 
86 163 
86 167 
87 97 
87 107 
87 114 
87 124 
87 132 
87 144 
87 154 
87 160 
87 174 
87 178 
88 101 
88 110 
88 114 
88 119 
88 138 
88 156 
88 163 
88 166 
88 175 
88 182 
89 100 
89 109 
89 114 
89 120 
89 136 
89 137 
89 148 
89 159 
89 177 
89 180 
90 100 
90 110 
90 113 
90 124 
90 128 
90 135 
90 143 
90 167 
90 170 
90 172 
91 102 
91 109 
91 113 
91 121 
91 132 
91 139 
91 149 
91 155 
91 171 
91 175 
